c Sudoku solution
p cnf 729 0
115 0
217 0
224 0
248 0
276 0
356 0
372 0
384 0
463 0
513 0
539 0
544 0
591 0
641 0
689 0
697 0
673 0
743 0
785 0
794 0
474 0
575 0
831 0
868 0
896 0
928 0
778 0
983 0
971 0
823 0
935 0
634 0
281 0
992 0
887 0
879 0
177 0
188 0
498 0
618 0
558 0
338 0
393 0
199 0
295 0
142 0
232 0
133 0
126 0
253 0
269 0
666 0
586 0
482 0
845 0
347 0
365 0
946 0
449 0
737 0
716 0
812 0
729 0
914 0
959 0
967 0
854 0
411 0
436 0
319 0
321 0
151 0
164 0
752 0
761 0
655 0
562 0
457 0
425 0
622 0
527 0
